c defined variables: 19 20 21 22 23 24 25 28 29 30 31 32 33 34 35 36 39 40 41 44 45 46 47 48 49 50 51 52 53 56 57 58 59 60 61 62 63 64 65 68 69 70 71 72 73 74 75 76 77 78 79 80 81 
p cnf 319 435
a 5 6 7 8 9 10 11 12 13 14 15 16 0
e 26 27 37 38 42 43 54 55 66 67 19 20 21 22 23 24 25 28 29 30 31 32 33 34 35 36 39 40 41 44 45 46 47 48 49 50 51 52 53 56 57 58 59 60 61 62 63 64 65 68 69 70 71 72 73 74 75 76 77 78 79 80 81 273 274 275 276 277 278 279 280 281 282 283 284 285 286 287 288 289 290 291 292 293 294 295 296 297 298 299 300 301 302 303 304 305 306 307 308 309 310 311 312 313 314 315 316 317 318 319 0
d 1 5 6 7 8 9 10 11 12 13 14 0
d 2 5 6 7 8 9 10 11 12 13 14 0
d 3 5 6 7 8 9 10 11 12 13 14 0
d 4 5 6 7 8 9 10 11 12 13 14 0
d 17 13 14 0
d 18 15 16 0
274 -19 0
-274 19 0
275 -20 0
-275 20 0
276 -21 0
-276 21 0
277 -22 0
-277 22 0
278 -23 0
-278 23 0
279 -24 0
-279 24 0
280 -25 0
-280 25 0
281 -28 0
-281 28 0
-273 -29 0
273 29 0
282 -30 0
-282 30 0
283 -31 0
-283 31 0
284 -32 0
-284 32 0
285 -33 0
-285 33 0
-286 -34 0
286 34 0
287 -35 0
-287 35 0
288 -36 0
-288 36 0
289 -39 0
-289 39 0
290 -40 0
-290 40 0
-291 -41 0
291 41 0
292 -44 0
-292 44 0
293 -45 0
-293 45 0
294 -46 0
-294 46 0
-295 -47 0
295 47 0
296 -48 0
-296 48 0
297 -49 0
-297 49 0
298 -50 0
-298 50 0
-299 -51 0
299 51 0
300 -52 0
-300 52 0
301 -53 0
-301 53 0
302 -56 0
-302 56 0
303 -57 0
-303 57 0
304 -58 0
-304 58 0
-305 -59 0
305 59 0
306 -60 0
-306 60 0
307 -61 0
-307 61 0
308 -62 0
-308 62 0
-309 -63 0
309 63 0
310 -64 0
-310 64 0
311 -65 0
-311 65 0
312 -68 0
-312 68 0
313 -69 0
-313 69 0
314 -70 0
-314 70 0
315 -71 0
-315 71 0
316 -72 0
-316 72 0
317 -73 0
-317 73 0
-273 -74 0
273 74 0
318 -75 0
-318 75 0
-273 -76 0
273 76 0
319 -77 0
-319 77 0
-273 -78 0
273 78 0
273 -79 0
-273 79 0
273 -80 0
-273 80 0
273 -81 0
-273 81 0
-19 -15 0
-19 13 0
19 15 -13 0
-20 15 0
-20 -13 0
20 -15 13 0
-21 -19 0
-21 -20 0
21 19 20 0
-22 -16 0
-22 14 0
22 16 -14 0
-23 16 0
-23 -14 0
23 -16 14 0
-24 -22 0
-24 -23 0
24 22 23 0
-25 21 0
-25 24 0
25 -21 -24 0
-26 18 0
-26 -17 0
26 -18 17 0
-27 -18 0
-27 17 0
27 18 -17 0
-28 -26 0
-28 -27 0
28 26 27 0
-29 25 0
-29 -28 0
29 -25 28 0
-30 9 0
-30 5 0
30 -9 -5 0
-31 10 0
-31 30 0
31 -10 -30 0
-32 -10 0
-32 -30 0
32 10 30 0
-33 -31 0
-33 -32 0
33 31 32 0
34 -6 0
34 33 0
-34 6 -33 0
-35 6 0
-35 -33 0
35 -6 33 0
-36 34 0
-36 -35 0
36 -34 35 0
-37 2 0
-37 36 0
37 -2 -36 0
-38 -2 0
-38 -36 0
38 2 36 0
-39 -37 0
-39 -38 0
39 37 38 0
-40 -9 0
-40 -5 0
40 9 5 0
41 -30 0
41 -40 0
-41 30 40 0
-42 1 0
-42 41 0
42 -1 -41 0
-43 -1 0
-43 -41 0
43 1 41 0
-44 -42 0
-44 -43 0
44 42 43 0
-45 39 0
-45 44 0
45 -39 -44 0
-46 -6 0
-46 -31 0
46 6 31 0
47 -32 0
47 -46 0
-47 32 46 0
-48 11 0
-48 -47 0
48 -11 47 0
-49 -11 0
-49 47 0
49 11 -47 0
-50 -48 0
-50 -49 0
50 48 49 0
51 -7 0
51 50 0
-51 7 -50 0
-52 7 0
-52 -50 0
52 -7 50 0
-53 51 0
-53 -52 0
53 -51 52 0
-54 3 0
-54 53 0
54 -3 -53 0
-55 -3 0
-55 -53 0
55 3 53 0
-56 -54 0
-56 -55 0
56 54 55 0
-57 45 0
-57 56 0
57 -45 -56 0
-58 -7 0
-58 -48 0
58 7 48 0
59 -49 0
59 -58 0
-59 49 58 0
-60 -12 0
-60 59 0
60 12 -59 0
-61 12 0
-61 -59 0
61 -12 59 0
-62 -60 0
-62 -61 0
62 60 61 0
63 -8 0
63 62 0
-63 8 -62 0
-64 8 0
-64 -62 0
64 -8 62 0
-65 63 0
-65 -64 0
65 -63 64 0
-66 4 0
-66 65 0
66 -4 -65 0
-67 -4 0
-67 -65 0
67 4 65 0
-68 -66 0
-68 -67 0
68 66 67 0
-69 57 0
-69 68 0
69 -57 -68 0
-70 -16 0
-70 -69 0
70 16 69 0
-71 16 0
-71 69 0
71 -16 -69 0
-72 -70 0
-72 -71 0
72 70 71 0
-73 15 0
-73 72 0
73 -15 -72 0
-74 73 0
-74 27 0
74 -73 -27 0
-75 14 0
-75 13 0
75 -14 -13 0
-76 17 0
-76 75 0
76 -17 -75 0
-77 -14 0
-77 -13 0
77 14 13 0
-78 -17 0
-78 77 0
78 17 -77 0
-79 -76 0
-79 -78 0
79 76 78 0
-80 -74 0
-80 79 0
80 74 -79 0
-81 -29 0
-81 80 0
81 29 -80 0
81 0
273 0
13 -274 0
-15 -274 0
-13 15 274 0
-13 -275 0
15 -275 0
13 -15 275 0
-19 -276 0
-20 -276 0
19 20 276 0
14 -277 0
-16 -277 0
-14 16 277 0
-14 -278 0
16 -278 0
14 -16 278 0
-22 -279 0
-23 -279 0
22 23 279 0
21 -280 0
24 -280 0
-21 -24 280 0
-26 -281 0
-27 -281 0
26 27 281 0
5 -282 0
9 -282 0
-5 -9 282 0
10 -283 0
30 -283 0
-10 -30 283 0
-10 -284 0
-30 -284 0
10 30 284 0
-31 -285 0
-32 -285 0
31 32 285 0
-6 -286 0
33 -286 0
6 -33 286 0
6 -287 0
-33 -287 0
-6 33 287 0
34 -288 0
-35 -288 0
-34 35 288 0
-37 -289 0
-38 -289 0
37 38 289 0
-5 -290 0
-9 -290 0
5 9 290 0
-30 -291 0
-40 -291 0
30 40 291 0
-42 -292 0
-43 -292 0
42 43 292 0
39 -293 0
44 -293 0
-39 -44 293 0
-6 -294 0
-31 -294 0
6 31 294 0
-32 -295 0
-46 -295 0
32 46 295 0
11 -296 0
-47 -296 0
-11 47 296 0
-11 -297 0
47 -297 0
11 -47 297 0
-48 -298 0
-49 -298 0
48 49 298 0
-7 -299 0
50 -299 0
7 -50 299 0
7 -300 0
-50 -300 0
-7 50 300 0
51 -301 0
-52 -301 0
-51 52 301 0
-54 -302 0
-55 -302 0
54 55 302 0
45 -303 0
56 -303 0
-45 -56 303 0
-7 -304 0
-48 -304 0
7 48 304 0
-49 -305 0
-58 -305 0
49 58 305 0
-12 -306 0
59 -306 0
12 -59 306 0
12 -307 0
-59 -307 0
-12 59 307 0
-60 -308 0
-61 -308 0
60 61 308 0
-8 -309 0
62 -309 0
8 -62 309 0
8 -310 0
-62 -310 0
-8 62 310 0
63 -311 0
-64 -311 0
-63 64 311 0
-66 -312 0
-67 -312 0
66 67 312 0
57 -313 0
68 -313 0
-57 -68 313 0
-16 -314 0
-69 -314 0
16 69 314 0
16 -315 0
69 -315 0
-16 -69 315 0
-70 -316 0
-71 -316 0
70 71 316 0
15 -317 0
72 -317 0
-15 -72 317 0
13 -318 0
14 -318 0
-13 -14 318 0
-13 -319 0
-14 -319 0
13 14 319 0
